&CONTROL
  calculation='relax',
  prefix='calc',
  pseudo_dir='/gpfs/pace1/project/chbe-medford/medford-share/data/pseudos/SSSP_eff_PBE',
  outdir='.',
  tprnfor=.true.,
/
&SYSTEM
  ibrav=0,
  celldm(1)=1.8897261245650618d0,
  nat=18,
  ntyp=1,
  ecutwfc=44.099188549d0,
  ecutrho=330.743914118d0,
  nbnd=172,
  occupations='smearing',
  smearing='fd',
  degauss=0.00734986475817d0,
  input_dft='PBE',
/
&ELECTRONS
  diagonalization='cg',
  conv_thr=7.34986475817e-08,
  mixing_beta=0.05d0,
  mixing_mode='local-TF',
  electron_maxstep=1000,
  conv_thr=7.34986475817e-08,
/
&IONS
  ion_dynamics='ase3',
/
CELL_PARAMETERS
    8.251936136447011d0     0.000000000000000d0     0.000000000000000d0
    0.000000000000000d0     8.251936136447011d0     0.000000000000000d0
    0.000000000000000d0     0.000000000000000d0    11.945000000000000d0
ATOMIC_SPECIES
Pd1 106.42d0 Pd.UPF
ATOMIC_POSITIONS {crystal}
Pd1      0.166666666666667d0     0.166666666666667d0     0.418585182084554d0
Pd1      0.500000000000000d0     0.166666666666667d0     0.418585182084554d0
Pd1      0.833333333333333d0     0.166666666666667d0     0.418585182084554d0
Pd1      0.166666666666667d0     0.500000000000000d0     0.418585182084554d0
Pd1      0.500000000000000d0     0.500000000000000d0     0.418585182084554d0
Pd1      0.833333333333333d0     0.500000000000000d0     0.418585182084554d0
Pd1      0.166666666666667d0     0.833333333333333d0     0.418585182084554d0
Pd1      0.500000000000000d0     0.833333333333333d0     0.418585182084554d0
Pd1      0.833333333333333d0     0.833333333333333d0     0.418585182084554d0
Pd1      0.000000000000000d0     0.000000000000000d0     0.581414817915446d0
Pd1      0.333333333333333d0     0.000000000000000d0     0.581414817915446d0
Pd1      0.666666666666667d0     0.000000000000000d0     0.581414817915446d0
Pd1      0.000000000000000d0     0.333333333333333d0     0.581414817915446d0
Pd1      0.333333333333333d0     0.333333333333333d0     0.581414817915446d0
Pd1      0.666666666666667d0     0.333333333333333d0     0.581414817915446d0
Pd1      0.000000000000000d0     0.666666666666667d0     0.581414817915446d0
Pd1      0.333333333333333d0     0.666666666666667d0     0.581414817915446d0
Pd1      0.666666666666667d0     0.666666666666667d0     0.581414817915446d0
K_POINTS automatic
6 6 1 0 0 0
