&CONTROL
  calculation='relax',
  prefix='calc',
  pseudo_dir='/gpfs/pace1/project/chbe-medford/medford-share/data/pseudos/SSSP_eff_PBE',
  outdir='.',
  tprnfor=.true.,
/
&SYSTEM
  ibrav=0,
  celldm(1)=1.8897261245650618d0,
  nat=20,
  ntyp=3,
  ecutwfc=44.099188549d0,
  ecutrho=330.743914118d0,
  nbnd=176,
  occupations='smearing',
  smearing='fd',
  degauss=0.00734986475817d0,
  input_dft='PBE',
/
&ELECTRONS
  diagonalization='cg',
  conv_thr=7.34986475817e-08,
  mixing_beta=0.05d0,
  mixing_mode='local-TF',
  electron_maxstep=1000,
  conv_thr=7.34986475817e-08,
/
&IONS
  ion_dynamics='ase3',
/
CELL_PARAMETERS
    8.251936136447011d0     0.000000000000000d0     0.000000000000000d0
    4.125968068223505d0     7.146386324569921d0     0.000000000000000d0
    0.000000000000000d0     0.000000000000000d0    22.245892547147644d0
ATOMIC_SPECIES
Ag1 107.8682d0 Ag.UPF
Pd1 106.42d0 Pd.UPF
H1 1.008d0 H.UPF
ATOMIC_POSITIONS {crystal}
Ag1      0.888888888888889d0     0.222222222222222d0     0.449521185936061d0
Pd1      0.222222222222222d0     0.222222222222222d0     0.449521185936061d0
Ag1      0.555555555555555d0     0.222222222222222d0     0.449521185936061d0
Pd1      0.888888888888889d0     0.555555555555555d0     0.449521185936061d0
Pd1      0.222222222222222d0     0.555555555555555d0     0.449521185936061d0
Pd1      0.555555555555555d0     0.555555555555555d0     0.449521185936061d0
Ag1      0.888888888888889d0     0.888888888888889d0     0.449521185936061d0
Pd1      0.222222222222222d0     0.888888888888889d0     0.449521185936061d0
Ag1      0.555555555555556d0     0.888888888888889d0     0.449521185936061d0
Pd1      0.000000000000000d0     0.000000000000000d0     0.550478814063939d0
Ag1      0.333333333333333d0     0.000000000000000d0     0.550478814063939d0
Pd1      0.666666666666667d0     0.000000000000000d0     0.550478814063939d0
Pd1      0.000000000000000d0     0.333333333333333d0     0.550478814063939d0
Pd1      0.333333333333333d0     0.333333333333333d0     0.550478814063939d0
Pd1      0.666666666666667d0     0.333333333333333d0     0.550478814063939d0
Pd1      0.000000000000000d0     0.666666666666667d0     0.550478814063939d0
Ag1      0.333333333333333d0     0.666666666666667d0     0.550478814063939d0
Pd1      0.666666666666667d0     0.666666666666667d0     0.550478814063939d0
H1       0.444444444444444d0     0.444444444444444d0     0.572954873360742d0
H1       0.444444444444444d0     0.444444444444444d0     0.597678538587225d0
K_POINTS automatic
6 6 1 0 0 0
